ms-bivo4                              
1.0
        5.1956000328         0.0000000000         0.0000000000
       -0.0340481012         5.0933863368         0.0000000000
        0.0000000000         0.0000000000        11.7045001984
    O    V   Bi
   16    4    4
Direct
     0.149247006         0.502623975         0.205807999
     0.248535007         0.402193010         0.456247985
     0.649246991         0.002624000         0.705807984
     0.748534977         0.902193010         0.956247985
     0.850753009         0.997376025         0.205807999
     0.751465023         0.097806998         0.456247985
     0.350753009         0.497375995         0.705807984
     0.251464993         0.597806990         0.956247985
     0.850753009         0.497375995         0.794192016
     0.751465023         0.597806990         0.543752015
     0.350753009         0.997376025         0.294191986
     0.251464993         0.097806998         0.043752000
     0.149247006         0.002624000         0.794192016
     0.248535007         0.902193010         0.543752015
     0.649246991         0.502623975         0.294191986
     0.748534977         0.402193010         0.043752000
     0.000000000         0.250000000         0.123190999
     0.500000000         0.750000000         0.623190999
     0.000000000         0.750000000         0.876809001
     0.500000000         0.250000000         0.376809001
     0.000000000         0.250000000         0.625672996
     0.500000000         0.750000000         0.125672996
     0.000000000         0.750000000         0.374327004
     0.500000000         0.250000000         0.874327004
