Fe2 O3
1.0
        5.0380001068         0.0000000000         0.0000000000
       -2.5190000534         4.3630360768         0.0000000000
        0.0000000000         0.0000000000        13.7720003128
   Fe    O
   12   18
Direct
     0.000000000         0.000000000         0.355300009
     0.000000000         0.000000000         0.644699991
     0.000000000         0.000000000         0.144699991
     0.000000000         0.000000000         0.855300009
     0.666666687         0.333333343         0.688633323
     0.666666687         0.333333343         0.978033304
     0.666666687         0.333333343         0.478033334
     0.666666687         0.333333343         0.188633338
     0.333333343         0.666666687         0.021966675
     0.333333343         0.666666687         0.311366647
     0.333333343         0.666666687         0.811366677
     0.333333343         0.666666687         0.521966696
     0.305900007         0.000000000         0.250000000
     0.694100022         0.000000000         0.750000000
     0.000000000         0.305900007         0.250000000
     0.000000000         0.694100022         0.750000000
     0.694100022         0.694100022         0.250000000
     0.305900007         0.305900007         0.750000000
     0.972566664         0.333333343         0.583333313
     0.360766649         0.333333343         0.083333336
     0.666666687         0.639233351         0.583333313
     0.666666687         0.027433326         0.083333336
     0.360766649         0.027433326         0.583333313
     0.972566664         0.639233351         0.083333336
     0.639233351         0.666666687         0.916666687
     0.027433326         0.666666687         0.416666657
     0.333333343         0.972566664         0.916666687
     0.333333343         0.360766649         0.416666657
     0.027433326         0.360766649         0.916666687
     0.639233351         0.972566664         0.416666657
